WARNING: for repeatability, setting FPU to use double precision
============================[ Problem Statistics ]=============================
|                                                                             |
|  Number of variables:            50                                         |
|  Number of clauses:             218                                         |
|  Parse time:                   0.00 s                                       |
|                                                                             |
============================[ Search Statistics ]==============================
| Conflicts |          ORIGINAL         |          LEARNT          | Progress |
|           |    Vars  Clauses Literals |    Limit  Clauses Lit/Cl |          |
===============================================================================
===============================================================================
restarts              : 1
conflicts             : 46             (31768 /sec)
decisions             : 60             (0.00 % random) (41436 /sec)
propagations          : 670            (462707 /sec)
conflict literals     : 132            (25.42 % deleted)
Memory used           : 20.00 MB
CPU time              : 0.001448 s

UNSATISFIABLE
